100
32
10
18
27
13
20
21
27
6
27
27
28
11
6
9
8
2
15
10
4
10
4
17
5
3
2
3
1
1
2
3
1
1
1
1
2
1
2
1
2
5
1
1
1
18
1
1
1
2
1
19
18
1
2
1
2
2
2
1
1
20
2
25
5
1
17
2
2
1
2
3
1
1
5
3
1
1
4
17
3
1
9
2
1
1
4
3
2
3
1
2
1
1
4
1
1
1
1
2
1
17